0 14 3 19 18 18 17 16 15 15 12 13 11 12 10 11 49 7 5 9 12 13 14 15 15 14 13 12 4 17 16 10 6 5 3 7 11 13 10 10 12 16 17 15 18 9 9 9 14 7
16 0 15 14 12 12 11 10 8 9 7 7 6 6 8 9 41 11 11 11 10 10 11 6 5 4 5 6 13 15 12 9 10 13 14 12 8 11 8 14 10 17 18 13 15 15 15 15 12 15
4 13 0 16 21 21 21 19 18 18 13 14 12 12 9 9 47 5 3 7 10 11 12 13 13 13 11 13 2 15 13 8 5 4 2 9 11 11 7 12 14 17 18 15 18 9 10 8 16 7
16 13 15 0 22 22 21 20 19 19 17 18 16 16 19 18 41 17 11 10 7 6 4 15 15 12 15 17 12 10 7 8 12 14 14 20 18 7 9 21 20 21 21 23 26 15 16 14 20 14
19 12 23 23 0 4 5 9 8 8 9 11 10 10 14 13 41 16 20 20 19 19 20 14 14 12 11 13 21 24 21 17 19 22 21 16 12 19 17 18 15 21 22 15 18 20 18 21 16 20
20 12 20 23 4 0 4 5 8 8 9 11 10 10 13 13 42 16 19 19 18 19 20 14 13 12 11 12 21 23 21 17 19 21 19 17 12 19 16 18 14 21 22 16 19 19 18 21 16 20
18 11 22 22 5 4 0 6 7 7 7 10 9 9 12 12 40 15 18 19 18 18 19 13 12 11 10 11 20 23 20 16 17 21 18 16 11 18 15 18 13 20 21 14 17 18 18 20 15 19
17 9 18 20 8 8 7 0 5 5 6 8 7 7 11 10 39 13 17 17 16 17 17 12 11 10 8 10 19 21 18 15 16 19 18 15 10 16 13 15 11 18 19 14 17 17 16 19 13 17
16 8 16 18 8 7 7 5 0 1 5 7 6 8 9 9 41 11 15 15 14 15 15 10 9 8 6 8 17 19 17 13 14 17 15 13 8 15 12 14 10 16 17 13 15 15 14 17 12 16
15 8 17 18 8 7 7 5 1 0 5 7 7 8 9 9 40 12 15 16 14 15 16 10 9 8 6 8 17 19 16 13 14 17 15 13 8 15 12 14 10 17 17 13 15 15 14 17 12 16
13 6 17 17 7 7 7 5 4 4 0 2 1 3 6 6 40 9 14 14 13 14 14 8 8 7 5 5 15 18 15 12 13 15 14 9 6 13 11 12 8 14 15 10 13 13 12 14 9 13
16 7 16 17 10 9 8 7 6 6 1 0 2 3 7 6 41 9 14 14 13 13 14 9 8 7 5 6 16 18 15 12 13 15 15 9 8 14 11 12 8 15 16 11 14 14 13 15 10 14
12 6 15 16 9 9 8 7 6 6 1 2 0 2 6 5 42 8 14 13 12 13 14 8 7 6 4 5 14 17 15 11 12 14 14 8 5 13 10 11 7 14 15 10 12 12 11 14 9 13
12 8 13 18 10 10 9 8 7 7 5 5 3 0 3 3 47 5 13 16 13 14 15 9 9 7 4 2 13 20 16 12 13 12 11 7 4 15 12 10 6 13 13 8 11 11 10 12 7 11
12 8 13 18 10 10 9 8 7 7 4 5 3 2 0 2 45 5 15 15 14 14 15 9 9 7 4 1 14 18 16 12 13 11 11 8 5 15 11 11 6 13 14 9 12 12 11 13 8 12
9 10 10 19 14 14 13 12 10 11 7 8 6 6 3 0 51 2 13 16 15 16 17 12 11 10 6 5 11 20 18 14 10 9 8 7 8 16 13 12 10 17 18 13 15 14 14 13 11 11
49 40 48 40 40 41 40 40 39 39 40 42 41 41 45 44 0 46 43 42 40 39 37 37 38 37 42 43 45 46 43 40 43 46 46 47 44 39 42 51 46 53 53 46 48 47 48 44 47 46
7 11 6 17 16 15 14 14 12 12 9 10 8 8 5 5 49 0 9 14 13 13 14 12 12 11 9 7 8 18 15 13 8 6 5 6 8 14 10 11 9 16 16 12 15 13 12 12 11 10
5 10 6 11 18 18 18 17 15 15 13 14 12 13 14 13 45 11 0 4 6 8 9 11 11 9 11 14 1 12 9 4 3 7 5 11 14 8 4 12 14 14 15 18 22 8 9 7 15 6
11 10 11 9 19 18 18 17 16 16 13 14 12 13 16 14 43 14 5 0 2 5 9 11 12 9 12 14 7 9 7 4 7 11 9 13 16 7 5 14 14 14 15 19 21 9 10 7 14 8
12 9 12 7 18 18 17 17 15 15 13 14 12 12 15 14 41 14 6 3 0 3 7 11 11 9 11 13 8 8 5 4 8 10 10 14 14 5 5 14 15 14 15 19 22 9 10 8 14 8
15 12 14 5 21 20 19 19 17 17 15 16 14 15 18 17 42 15 9 6 3 0 5 13 13 11 13 15 10 6 4 7 10 13 12 16 17 4 8 16 16 16 17 21 23 11 12 10 16 10
12 9 11 7 18 17 17 16 15 15 13 14 12 12 15 14 40 13 7 6 4 2 0 11 10 8 11 13 8 9 7 4 7 10 10 15 15 3 5 15 16 16 16 19 22 10 11 9 16 9
16 5 15 14 14 13 13 12 11 11 9 9 8 8 11 11 37 12 12 12 10 11 12 0 2 5 7 9 14 15 13 9 12 12 13 14 11 10 8 16 12 19 20 15 17 17 16 15 14 16
14 4 13 14 14 13 13 11 11 11 9 9 7 8 11 10 38 12 11 11 9 10 11 5 0 2 6 8 13 15 12 9 10 12 12 13 10 10 7 16 12 19 19 14 17 16 16 15 13 15
14 4 13 13 13 12 11 11 8 8 7 8 6 7 9 9 39 12 11 10 9 10 11 5 4 0 5 7 12 14 12 8 9 11 12 12 9 10 7 15 11 18 19 13 16 16 15 14 13 15
13 6 12 15 11 11 10 9 8 8 6 8 6 4 4 5 43 8 14 12 12 12 13 7 7 5 0 2 14 16 14 10 12 12 11 11 8 12 9 14 10 18 17 12 15 15 14 16 11 15
13 6 12 17 12 11 11 9 8 8 6 7 5 3 3 3 43 6 13 14 12 13 14 8 7 6 2 0 13 18 15 11 11 12 11 9 6 13 10 12 8 15 15 11 13 13 12 15 10 14
4 11 5 14 19 19 19 18 16 16 15 15 14 14 14 10 45 7 1 5 7 8 10 12 12 10 12 14 0 13 10 5 3 5 3 9 14 9 5 11 13 15 16 17 20 7 8 6 15 5
17 15 18 10 24 23 23 22 20 21 18 19 17 18 21 20 46 19 11 9 7 8 11 16 16 14 16 18 13 0 4 10 13 15 16 17 20 10 11 18 18 18 19 23 25 13 14 12 18 12
16 13 16 5 23 22 21 20 19 19 17 18 16 17 20 18 44 18 10 9 6 7 6 15 15 13 15 17 12 5 0 9 12 15 14 17 19 9 10 18 18 18 18 22 25 13 13 11 18 11
10 8 9 8 17 16 16 15 13 14 12 12 11 11 13 12 42 12 5 5 4 5 6 9 10 7 9 12 6 9 7 0 5 9 8 15 13 5 2 17 15 18 19 18 20 11 12 9 17 11
6 9 5 12 19 18 17 16 15 15 14 14 12 13 13 12 45 9 2 7 8 9 10 11 11 9 11 13 2 15 11 5 0 5 4 12 15 9 3 14 16 17 18 19 22 10 11 9 18 8
6 10 5 13 19 19 18 17 16 15 14 14 13 13 12 11 45 8 5 9 9 9 10 11 12 9 12 12 4 14 11 7 3 0 3 13 14 10 5 14 15 19 20 18 21 11 12 10 17 9
5 11 4 14 17 16 15 14 14 14 11 12 10 10 7 7 46 3 6 10 10 10 11 11 11 10 9 9 5 15 12 9 5 3 0 7 9 11 7 13 10 17 18 13 17 11 11 10 12 8
8 12 11 22 15 15 14 13 12 12 9 10 8 9 10 10 47 7 11 15 18 19 20 14 13 12 11 9 10 19 18 16 13 12 11 0 7 19 15 6 4 12 12 8 10 10 9 9 6 8
13 9 14 20 12 12 12 11 9 9 7 7 6 6 7 8 45 9 15 19 16 17 17 12 11 10 9 7 15 24 18 15 16 14 13 8 0 17 14 10 6 15 15 9 11 11 10 13 8 13
14 10 13 7 19 19 18 17 16 16 14 15 13 13 16 15 40 15 8 7 5 3 5 12 12 10 12 14 9 10 7 5 9 11 11 18 16 0 6 20 18 21 22 20 23 12 13 10 19 14
8 7 7 9 16 15 15 14 12 13 11 11 10 10 13 12 42 12 5 7 6 6 7 9 9 6 9 11 5 11 8 2 3 7 6 14 12 6 0 17 14 19 20 17 19 13 14 11 16 11
11 13 13 23 16 15 15 14 13 13 10 11 9 9 11 11 48 10 13 17 20 22 22 15 14 13 11 11 12 21 19 18 15 15 13 4 7 20 18 0 4 12 12 9 12 10 9 10 5 9
12 12 14 22 15 15 14 13 12 12 9 10 8 9 10 10 47 11 12 16 14 19 20 14 13 12 10 10 11 18 16 16 14 14 12 7 6 19 16 4 0 6 7 9 11 5 4 7 4 7
16 16 18 19 19 19 19 17 16 16 13 14 12 13 14 14 52 15 15 12 13 15 17 18 18 16 14 14 14 18 15 20 17 18 16 11 10 16 19 8 9 0 3 10 13 8 8 10 5 11
20 20 21 22 23 23 22 21 19 20 17 18 16 17 18 18 55 19 16 15 16 19 20 22 21 20 19 18 19 22 18 18 22 22 21 15 14 19 20 12 12 4 0 14 16 12 12 12 9 15
18 15 19 25 15 16 15 16 14 15 12 13 11 12 13 14 47 14 20 23 21 22 23 17 16 15 14 13 19 29 24 20 20 19 18 11 9 22 19 13 9 14 14 0 4 14 13 16 9 17
19 17 21 27 18 18 18 18 16 17 14 14 13 13 14 15 50 15 22 24 23 24 24 19 18 17 15 14 21 28 25 22 22 20 19 13 11 24 21 15 11 16 15 3 0 16 15 17 11 19
9 17 11 19 20 19 19 18 17 17 14 14 13 13 15 15 51 13 7 12 9 12 16 19 18 17 15 15 7 17 10 12 9 12 10 9 11 16 12 7 7 9 9 13 16 0 1 3 8 3
10 16 12 20 19 19 18 17 16 16 13 14 12 13 14 14 48 14 9 13 15 17 18 18 17 16 15 14 8 18 11 13 11 13 10 10 10 17 13 7 7 8 9 13 15 1 0 4 8 5
8 16 10 17 19 19 18 17 16 16 13 14 12 13 14 14 51 12 6 7 10 13 15 17 18 15 14 14 5 15 13 11 8 10 8 7 11 14 10 6 8 12 12 15 17 2 3 0 10 2
15 12 16 22 16 15 15 14 12 13 10 10 9 9 10 11 48 12 14 19 14 20 20 15 14 13 11 10 14 19 17 19 16 17 15 9 7 23 18 7 3 7 7 7 10 8 7 9 0 10
7 15 9 19 18 18 17 16 15 15 12 13 11 12 13 14 50 10 5 9 12 15 14 17 16 15 13 13 4 14 17 10 7 9 7 6 11 13 9 7 10 13 13 14 17 4 5 3 12 0
